Version identifier: 22.1.0.0 | 2022-03-09 | 1a383f8ce
CPXPARAM_Read_DataCheck                          1
CPXPARAM_Threads                                 1
CPXPARAM_TimeLimit                               3600
Tried aggregator 2 times.
MIP Presolve eliminated 632 rows and 79 columns.
MIP Presolve modified 3667 coefficients.
Aggregator did 22 substitutions.
Reduced MIP has 777 rows, 139 columns, and 4181 nonzeros.
Reduced MIP has 90 binaries, 0 generals, 0 SOSs, and 0 indicators.
Presolve time = 0.02 sec. (7.71 ticks)
Found incumbent of value 101.056900 after 0.03 sec. (11.03 ticks)
Probing fixed 7 vars, tightened 11 bounds.
Probing time = 0.01 sec. (1.89 ticks)
Tried aggregator 1 time.
Detecting symmetries...
MIP Presolve eliminated 14 rows and 7 columns.
MIP Presolve modified 123 coefficients.
Reduced MIP has 763 rows, 132 columns, and 4033 nonzeros.
Reduced MIP has 83 binaries, 0 generals, 0 SOSs, and 0 indicators.
Presolve time = 0.01 sec. (2.78 ticks)
Probing time = 0.00 sec. (1.63 ticks)
Clique table members: 487.
MIP emphasis: balance optimality and feasibility.
MIP search method: dynamic search.
Parallel mode: none, using 1 thread.
Root relaxation solution time = 0.01 sec. (2.45 ticks)

        Nodes                                         Cuts/
   Node  Left     Objective  IInf  Best Integer    Best Bound    ItCnt     Gap

*     0+    0                          101.0569       74.7252            26.06%
      0     0       74.7252    31      101.0569       74.7252       85   26.06%
      0     0       74.7252    25      101.0569      Cuts: 36      157   26.06%
      0     0       74.7252    18      101.0569     Cuts: 134      305   26.06%
      0     0       74.7252    17      101.0569     Cuts: 100      444   26.06%
      0     0       74.7258    24      101.0569      Cuts: 46      521   26.06%
*     0+    0                           75.2493       74.7258             0.70%
Detecting symmetries...

Repeating presolve.
Tried aggregator 1 time.
MIP Presolve eliminated 461 rows and 57 columns.
MIP Presolve modified 562 coefficients.
Reduced MIP has 302 rows, 75 columns, and 1237 nonzeros.
Reduced MIP has 35 binaries, 0 generals, 0 SOSs, and 0 indicators.
Presolve time = 0.00 sec. (1.46 ticks)
Probing fixed 1 vars, tightened 14 bounds.
Probing time = 0.00 sec. (0.47 ticks)
Tried aggregator 1 time.
MIP Presolve eliminated 6 rows and 1 columns.
MIP Presolve modified 147 coefficients.
Reduced MIP has 296 rows, 74 columns, and 1211 nonzeros.
Reduced MIP has 34 binaries, 0 generals, 0 SOSs, and 0 indicators.
Presolve time = 0.00 sec. (0.75 ticks)
Probing time = 0.00 sec. (0.43 ticks)
Tried aggregator 1 time.
Detecting symmetries...
MIP Presolve modified 3 coefficients.
Reduced MIP has 296 rows, 74 columns, and 1211 nonzeros.
Reduced MIP has 34 binaries, 0 generals, 0 SOSs, and 0 indicators.
Presolve time = 0.00 sec. (0.64 ticks)
Represolve time = 0.02 sec. (4.56 ticks)
Probing time = 0.00 sec. (0.43 ticks)
Clique table members: 176.
MIP emphasis: balance optimality and feasibility.
MIP search method: dynamic search.
Parallel mode: none, using 1 thread.
Root relaxation solution time = 0.00 sec. (2.57 ticks)

        Nodes                                         Cuts/
   Node  Left     Objective  IInf  Best Integer    Best Bound    ItCnt     Gap

*     0+    0                           75.2493       74.7258             0.70%
      0     0       74.7262    24       75.2493       74.7262      664    0.70%
      0     0       74.7309    21       75.2493      Cuts: 90      725    0.69%
      0     0       74.7320    17       75.2493      Cuts: 51      745    0.69%
      0     0       74.7335    21       75.2493      Cuts: 11      756    0.69%
      0     0       74.7339    18       75.2493      Cuts: 29      771    0.69%
Detecting symmetries...
      0     2       74.7339    18       75.2493       74.7339      771    0.68%
Elapsed time = 0.28 sec. (115.46 ticks, tree = 0.01 MB, solutions = 2)

GUB cover cuts applied:  2
Implied bound cuts applied:  35
Flow cuts applied:  3
Mixed integer rounding cuts applied:  30
Gomory fractional cuts applied:  2

Root node processing (before b&c):
  Real time             =    0.28 sec. (115.46 ticks)
Sequential b&c:
  Real time             =    0.04 sec. (28.09 ticks)
                          ------------
Total (root+branch&cut) =    0.32 sec. (143.56 ticks)
